24 24
18
3 3   0 0 
3 4   9 20
3 5   9 15
3 6   6 0 
3 7   9 8 
3 8   13 0 
3 9   0 15
3 10  3 0 
3 12  0 3 
3 14  3 10
3 18  6 6 
3 24  16 0 
4 3   9 5 
4 4   12 20
4 5   9 0 
4 12  12 8 
5 8   19 16
5 16  19 0 
